(declare-fun Constructed_Argument_t () String)
(declare-fun CreateAsClass () Bool)
(declare-fun Constructed_Argument () String)
(declare-fun ExpandObjSwitcher () Real)
(declare-fun Constructed_Argument_2_t () String)
(assert (= Constructed_Argument_t "string"))
(assert CreateAsClass)
(assert (= Constructed_Argument ""))
(assert (= ExpandObjSwitcher 0.0))
(assert (not (= Constructed_Argument_2_t "string")))
(assert (not (= Constructed_Argument_2_t "number")))
(assert (not (= Constructed_Argument_2_t "boolean")))
(assert (= Constructed_Argument_2_t "object"))
(check-sat)
